80 3160
1 2 168
1 3 15
1 4 237
1 5 72
1 6 22
1 7 43
1 8 210
1 9 75
1 10 104
1 11 7
1 12 162
1 13 177
1 14 95
1 15 75
1 16 213
1 17 47
1 18 63
1 19 31
1 20 218
1 21 148
1 22 124
1 23 116
1 24 37
1 25 167
1 26 195
1 27 102
1 28 4
1 29 170
1 30 107
1 31 51
1 32 103
1 33 38
1 34 234
1 35 33
1 36 58
1 37 124
1 38 67
1 39 69
1 40 88
1 41 196
1 42 46
1 43 198
1 44 95
1 45 211
1 46 121
1 47 31
1 48 194
1 49 80
1 50 52
1 51 238
1 52 204
1 53 50
1 54 132
1 55 218
1 56 63
1 57 207
1 58 49
1 59 39
1 60 174
1 61 136
1 62 178
1 63 237
1 64 15
1 65 233
1 66 237
1 67 136
1 68 145
1 69 150
1 70 117
1 71 73
1 72 185
1 73 105
1 74 110
1 75 218
1 76 190
1 77 83
1 78 96
1 79 43
1 80 32
2 3 26
2 4 136
2 5 76
2 6 138
2 7 40
2 8 34
2 9 60
2 10 137
2 11 229
2 12 70
2 13 86
2 14 198
2 15 19
2 16 56
2 17 210
2 18 129
2 19 68
2 20 168
2 21 81
2 22 61
2 23 198
2 24 125
2 25 229
2 26 97
2 27 146
2 28 212
2 29 218
2 30 87
2 31 150
2 32 43
2 33 52
2 34 229
2 35 202
2 36 200
2 37 218
2 38 227
2 39 219
2 40 224
2 41 16
2 42 55
2 43 123
2 44 149
2 45 43
2 46 221
2 47 208
2 48 168
2 49 70
2 50 202
2 51 165
2 52 59
2 53 17
2 54 143
2 55 158
2 56 205
2 57 26
2 58 39
2 59 235
2 60 63
2 61 239
2 62 148
2 63 150
2 64 187
2 65 177
2 66 100
2 67 27
2 68 0
2 69 62
2 70 168
2 71 186
2 72 92
2 73 36
2 74 63
2 75 75
2 76 110
2 77 50
2 78 201
2 79 135
2 80 177
3 4 82
3 5 129
3 6 207
3 7 219
3 8 238
3 9 224
3 10 231
3 11 49
3 12 40
3 13 108
3 14 46
3 15 187
3 16 73
3 17 235
3 18 78
3 19 222
3 20 110
3 21 95
3 22 32
3 23 119
3 24 16
3 25 149
3 26 171
3 27 58
3 28 226
3 29 21
3 30 234
3 31 177
3 32 191
3 33 211
3 34 92
3 35 51
3 36 97
3 37 8
3 38 107
3 39 86
3 40 88
3 41 111
3 42 139
3 43 1
3 44 171
3 45 197
3 46 59
3 47 63
3 48 135
3 49 80
3 50 105
3 51 92
3 52 207
3 53 122
3 54 145
3 55 165
3 56 57
3 57 159
3 58 34
3 59 208
3 60 42
3 61 48
3 62 36
3 63 22
3 64 19
3 65 95
3 66 145
3 67 45
3 68 72
3 69 37
3 70 9
3 71 149
3 72 164
3 73 167
3 74 232
3 75 231
3 76 83
3 77 90
3 78 36
3 79 40
3 80 102
4 5 19
4 6 184
4 7 136
4 8 124
4 9 206
4 10 117
4 11 49
4 12 51
4 13 115
4 14 155
4 15 195
4 16 79
4 17 130
4 18 22
4 19 5
4 20 133
4 21 210
4 22 101
4 23 93
4 24 140
4 25 220
4 26 134
4 27 113
4 28 44
4 29 5
4 30 144
4 31 197
4 32 52
4 33 120
4 34 62
4 35 154
4 36 83
4 37 103
4 38 101
4 39 153
4 40 125
4 41 36
4 42 143
4 43 213
4 44 18
4 45 22
4 46 93
4 47 14
4 48 64
4 49 197
4 50 87
4 51 33
4 52 102
4 53 71
4 54 96
4 55 82
4 56 221
4 57 79
4 58 237
4 59 156
4 60 148
4 61 90
4 62 208
4 63 6
4 64 166
4 65 152
4 66 134
4 67 171
4 68 185
4 69 149
4 70 85
4 71 105
4 72 164
4 73 233
4 74 63
4 75 104
4 76 211
4 77 4
4 78 54
4 79 162
4 80 122
5 6 204
5 7 207
5 8 111
5 9 39
5 10 190
5 11 85
5 12 1
5 13 179
5 14 45
5 15 156
5 16 23
5 17 164
5 18 81
5 19 210
5 20 92
5 21 91
5 22 106
5 23 166
5 24 74
5 25 26
5 26 190
5 27 237
5 28 33
5 29 130
5 30 187
5 31 57
5 32 166
5 33 224
5 34 127
5 35 213
5 36 204
5 37 126
5 38 19
5 39 181
5 40 82
5 41 122
5 42 8
5 43 11
5 44 169
5 45 186
5 46 151
5 47 27
5 48 186
5 49 115
5 50 60
5 51 144
5 52 4
5 53 47
5 54 76
5 55 118
5 56 189
5 57 98
5 58 23
5 59 105
5 60 147
5 61 97
5 62 31
5 63 81
5 64 217
5 65 201
5 66 187
5 67 128
5 68 8
5 69 112
5 70 138
5 71 8
5 72 229
5 73 99
5 74 104
5 75 174
5 76 35
5 77 206
5 78 207
5 79 54
5 80 49
6 7 108
6 8 6
6 9 225
6 10 98
6 11 95
6 12 49
6 13 157
6 14 162
6 15 182
6 16 118
6 17 187
6 18 97
6 19 99
6 20 13
6 21 122
6 22 140
6 23 47
6 24 83
6 25 237
6 26 186
6 27 172
6 28 194
6 29 159
6 30 35
6 31 50
6 32 90
6 33 138
6 34 219
6 35 170
6 36 43
6 37 163
6 38 42
6 39 3
6 40 93
6 41 192
6 42 236
6 43 133
6 44 138
6 45 11
6 46 94
6 47 106
6 48 81
6 49 210
6 50 193
6 51 127
6 52 86
6 53 162
6 54 142
6 55 238
6 56 236
6 57 227
6 58 238
6 59 111
6 60 214
6 61 29
6 62 147
6 63 169
6 64 64
6 65 94
6 66 228
6 67 98
6 68 139
6 69 119
6 70 21
6 71 21
6 72 27
6 73 124
6 74 211
6 75 201
6 76 17
6 77 168
6 78 79
6 79 239
6 80 10
7 8 177
7 9 196
7 10 230
7 11 13
7 12 30
7 13 210
7 14 134
7 15 215
7 16 21
7 17 218
7 18 80
7 19 145
7 20 127
7 21 165
7 22 70
7 23 57
7 24 126
7 25 29
7 26 175
7 27 184
7 28 162
7 29 22
7 30 107
7 31 0
7 32 150
7 33 154
7 34 128
7 35 68
7 36 179
7 37 179
7 38 151
7 39 175
7 40 191
7 41 156
7 42 208
7 43 239
7 44 73
7 45 174
7 46 190
7 47 114
7 48 234
7 49 115
7 50 54
7 51 208
7 52 54
7 53 48
7 54 51
7 55 135
7 56 51
7 57 104
7 58 124
7 59 191
7 60 64
7 61 216
7 62 124
7 63 117
7 64 181
7 65 119
7 66 177
7 67 75
7 68 47
7 69 144
7 70 166
7 71 174
7 72 59
7 73 87
7 74 216
7 75 52
7 76 25
7 77 2
7 78 71
7 79 37
7 80 9
8 9 10
8 10 211
8 11 54
8 12 140
8 13 95
8 14 4
8 15 192
8 16 223
8 17 102
8 18 154
8 19 202
8 20 78
8 21 113
8 22 127
8 23 104
8 24 14
8 25 69
8 26 113
8 27 144
8 28 219
8 29 5
8 30 224
8 31 201
8 32 8
8 33 114
8 34 14
8 35 118
8 36 204
8 37 91
8 38 169
8 39 93
8 40 47
8 41 73
8 42 168
8 43 76
8 44 97
8 45 81
8 46 194
8 47 238
8 48 98
8 49 188
8 50 214
8 51 222
8 52 233
8 53 139
8 54 216
8 55 15
8 56 83
8 57 91
8 58 25
8 59 100
8 60 173
8 61 200
8 62 36
8 63 160
8 64 96
8 65 219
8 66 132
8 67 12
8 68 23
8 69 125
8 70 133
8 71 217
8 72 94
8 73 90
8 74 41
8 75 150
8 76 224
8 77 187
8 78 27
8 79 38
8 80 24
9 10 50
9 11 154
9 12 92
9 13 159
9 14 224
9 15 167
9 16 43
9 17 173
9 18 125
9 19 133
9 20 7
9 21 223
9 22 6
9 23 73
9 24 83
9 25 144
9 26 148
9 27 201
9 28 112
9 29 155
9 30 208
9 31 235
9 32 202
9 33 159
9 34 76
9 35 110
9 36 137
9 37 20
9 38 103
9 39 150
9 40 133
9 41 9
9 42 21
9 43 28
9 44 117
9 45 169
9 46 178
9 47 239
9 48 46
9 49 234
9 50 210
9 51 121
9 52 52
9 53 224
9 54 201
9 55 104
9 56 66
9 57 193
9 58 122
9 59 102
9 60 145
9 61 25
9 62 35
9 63 25
9 64 98
9 65 194
9 66 234
9 67 136
9 68 194
9 69 53
9 70 146
9 71 122
9 72 214
9 73 38
9 74 5
9 75 160
9 76 85
9 77 79
9 78 138
9 79 58
9 80 131
10 11 138
10 12 41
10 13 112
10 14 151
10 15 214
10 16 44
10 17 159
10 18 106
10 19 165
10 20 135
10 21 96
10 22 60
10 23 79
10 24 145
10 25 233
10 26 139
10 27 97
10 28 155
10 29 134
10 30 114
10 31 145
10 32 159
10 33 6
10 34 133
10 35 140
10 36 69
10 37 94
10 38 117
10 39 152
10 40 9
10 41 234
10 42 237
10 43 161
10 44 180
10 45 161
10 46 123
10 47 101
10 48 173
10 49 58
10 50 190
10 51 217
10 52 105
10 53 5
10 54 51
10 55 171
10 56 12
10 57 221
10 58 64
10 59 131
10 60 69
10 61 121
10 62 7
10 63 120
10 64 166
10 65 225
10 66 130
10 67 64
10 68 29
10 69 205
10 70 123
10 71 121
10 72 206
10 73 76
10 74 33
10 75 48
10 76 113
10 77 52
10 78 50
10 79 72
10 80 222
11 12 65
11 13 41
11 14 40
11 15 86
11 16 189
11 17 134
11 18 164
11 19 13
11 20 173
11 21 130
11 22 190
11 23 130
11 24 3
11 25 222
11 26 10
11 27 191
11 28 151
11 29 116
11 30 211
11 31 144
11 32 126
11 33 78
11 34 190
11 35 162
11 36 127
11 37 156
11 38 125
11 39 145
11 40 197
11 41 210
11 42 194
11 43 32
11 44 115
11 45 188
11 46 203
11 47 5
11 48 225
11 49 72
11 50 136
11 51 49
11 52 144
11 53 121
11 54 29
11 55 50
11 56 220
11 57 117
11 58 50
11 59 228
11 60 214
11 61 21
11 62 227
11 63 6
11 64 78
11 65 189
11 66 233
11 67 51
11 68 127
11 69 203
11 70 16
11 71 44
11 72 140
11 73 152
11 74 58
11 75 228
11 76 176
11 77 178
11 78 92
11 79 125
11 80 49
12 13 53
12 14 218
12 15 140
12 16 116
12 17 40
12 18 159
12 19 216
12 20 88
12 21 70
12 22 149
12 23 232
12 24 207
12 25 55
12 26 84
12 27 97
12 28 97
12 29 12
12 30 210
12 31 135
12 32 233
12 33 214
12 34 168
12 35 26
12 36 73
12 37 38
12 38 111
12 39 55
12 40 103
12 41 167
12 42 195
12 43 203
12 44 221
12 45 43
12 46 157
12 47 27
12 48 110
12 49 138
12 50 216
12 51 42
12 52 43
12 53 36
12 54 48
12 55 153
12 56 52
12 57 90
12 58 43
12 59 84
12 60 114
12 61 160
12 62 132
12 63 210
12 64 90
12 65 181
12 66 53
12 67 234
12 68 97
12 69 108
12 70 64
12 71 47
12 72 208
12 73 168
12 74 49
12 75 225
12 76 191
12 77 12
12 78 122
12 79 42
12 80 3
13 14 16
13 15 2
13 16 72
13 17 25
13 18 224
13 19 181
13 20 82
13 21 233
13 22 39
13 23 232
13 24 130
13 25 51
13 26 220
13 27 226
13 28 178
13 29 57
13 30 88
13 31 111
13 32 163
13 33 64
13 34 126
13 35 111
13 36 90
13 37 129
13 38 238
13 39 199
13 40 24
13 41 117
13 42 238
13 43 144
13 44 103
13 45 26
13 46 52
13 47 219
13 48 203
13 49 34
13 50 227
13 51 13
13 52 156
13 53 210
13 54 19
13 55 177
13 56 119
13 57 83
13 58 127
13 59 202
13 60 213
13 61 71
13 62 76
13 63 26
13 64 174
13 65 127
13 66 204
13 67 23
13 68 153
13 69 116
13 70 198
13 71 35
13 72 4
13 73 219
13 74 136
13 75 3
13 76 57
13 77 134
13 78 175
13 79 213
13 80 239
14 15 1
14 16 125
14 17 77
14 18 168
14 19 98
14 20 157
14 21 202
14 22 156
14 23 198
14 24 203
14 25 86
14 26 182
14 27 92
14 28 10
14 29 30
14 30 12
14 31 124
14 32 98
14 33 80
14 34 89
14 35 165
14 36 144
14 37 49
14 38 85
14 39 171
14 40 124
14 41 108
14 42 107
14 43 207
14 44 60
14 45 227
14 46 2
14 47 85
14 48 150
14 49 79
14 50 82
14 51 113
14 52 235
14 53 188
14 54 224
14 55 202
14 56 26
14 57 22
14 58 49
14 59 154
14 60 214
14 61 87
14 62 116
14 63 35
14 64 8
14 65 18
14 66 62
14 67 42
14 68 115
14 69 8
14 70 44
14 71 92
14 72 92
14 73 91
14 74 78
14 75 43
14 76 211
14 77 136
14 78 46
14 79 152
14 80 130
15 16 159
15 17 29
15 18 237
15 19 61
15 20 110
15 21 156
15 22 154
15 23 12
15 24 200
15 25 189
15 26 10
15 27 201
15 28 175
15 29 93
15 30 69
15 31 149
15 32 140
15 33 170
15 34 236
15 35 112
15 36 237
15 37 77
15 38 54
15 39 211
15 40 10
15 41 229
15 42 138
15 43 169
15 44 19
15 45 231
15 46 13
15 47 135
15 48 128
15 49 172
15 50 56
15 51 32
15 52 234
15 53 205
15 54 120
15 55 88
15 56 144
15 57 215
15 58 160
15 59 109
15 60 184
15 61 56
15 62 1
15 63 134
15 64 133
15 65 167
15 66 179
15 67 5
15 68 2
15 69 187
15 70 73
15 71 35
15 72 209
15 73 156
15 74 211
15 75 222
15 76 225
15 77 142
15 78 195
15 79 61
15 80 83
16 17 236
16 18 11
16 19 205
16 20 5
16 21 84
16 22 11
16 23 2
16 24 176
16 25 62
16 26 186
16 27 74
16 28 34
16 29 57
16 30 204
16 31 110
16 32 133
16 33 222
16 34 202
16 35 5
16 36 185
16 37 88
16 38 180
16 39 34
16 40 75
16 41 192
16 42 112
16 43 11
16 44 219
16 45 175
16 46 209
16 47 74
16 48 36
16 49 219
16 50 120
16 51 6
16 52 200
16 53 70
16 54 180
16 55 19
16 56 50
16 57 124
16 58 39
16 59 52
16 60 19
16 61 89
16 62 80
16 63 162
16 64 179
16 65 95
16 66 192
16 67 145
16 68 1
16 69 169
16 70 86
16 71 97
16 72 149
16 73 179
16 74 180
16 75 122
16 76 189
16 77 103
16 78 238
16 79 161
16 80 97
17 18 113
17 19 217
17 20 102
17 21 57
17 22 55
17 23 219
17 24 170
17 25 130
17 26 178
17 27 205
17 28 9
17 29 194
17 30 135
17 31 129
17 32 239
17 33 233
17 34 40
17 35 162
17 36 219
17 37 158
17 38 184
17 39 82
17 40 185
17 41 156
17 42 61
17 43 18
17 44 89
17 45 142
17 46 214
17 47 169
17 48 62
17 49 22
17 50 187
17 51 167
17 52 122
17 53 208
17 54 55
17 55 65
17 56 187
17 57 167
17 58 177
17 59 6
17 60 236
17 61 153
17 62 163
17 63 188
17 64 174
17 65 102
17 66 63
17 67 101
17 68 206
17 69 50
17 70 226
17 71 181
17 72 1
17 73 134
17 74 75
17 75 120
17 76 154
17 77 16
17 78 106
17 79 215
17 80 81
18 19 229
18 20 208
18 21 191
18 22 92
18 23 222
18 24 84
18 25 218
18 26 224
18 27 29
18 28 110
18 29 56
18 30 119
18 31 105
18 32 192
18 33 155
18 34 106
18 35 18
18 36 171
18 37 155
18 38 108
18 39 87
18 40 70
18 41 219
18 42 93
18 43 193
18 44 185
18 45 43
18 46 125
18 47 120
18 48 96
18 49 135
18 50 99
18 51 164
18 52 86
18 53 47
18 54 48
18 55 156
18 56 43
18 57 114
18 58 143
18 59 181
18 60 15
18 61 92
18 62 233
18 63 10
18 64 144
18 65 189
18 66 65
18 67 230
18 68 207
18 69 71
18 70 150
18 71 191
18 72 222
18 73 215
18 74 141
18 75 148
18 76 106
18 77 154
18 78 46
18 79 73
18 80 4
19 20 178
19 21 12
19 22 200
19 23 25
19 24 167
19 25 187
19 26 187
19 27 53
19 28 75
19 29 6
19 30 128
19 31 11
19 32 210
19 33 197
19 34 39
19 35 147
19 36 189
19 37 117
19 38 198
19 39 101
19 40 93
19 41 152
19 42 221
19 43 177
19 44 82
19 45 1
19 46 215
19 47 49
19 48 20
19 49 40
19 50 205
19 51 173
19 52 128
19 53 163
19 54 138
19 55 165
19 56 117
19 57 64
19 58 227
19 59 96
19 60 42
19 61 222
19 62 234
19 63 44
19 64 140
19 65 66
19 66 82
19 67 66
19 68 224
19 69 46
19 70 21
19 71 31
19 72 33
19 73 41
19 74 39
19 75 218
19 76 8
19 77 86
19 78 177
19 79 124
19 80 174
20 21 62
20 22 183
20 23 25
20 24 132
20 25 0
20 26 18
20 27 77
20 28 202
20 29 8
20 30 86
20 31 60
20 32 10
20 33 213
20 34 133
20 35 223
20 36 63
20 37 141
20 38 229
20 39 85
20 40 108
20 41 208
20 42 106
20 43 92
20 44 192
20 45 147
20 46 114
20 47 227
20 48 201
20 49 92
20 50 211
20 51 159
20 52 53
20 53 151
20 54 125
20 55 233
20 56 170
20 57 169
20 58 109
20 59 28
20 60 0
20 61 11
20 62 134
20 63 191
20 64 90
20 65 203
20 66 54
20 67 78
20 68 23
20 69 80
20 70 159
20 71 203
20 72 91
20 73 116
20 74 144
20 75 136
20 76 25
20 77 167
20 78 37
20 79 95
20 80 48
21 22 38
21 23 225
21 24 23
21 25 123
21 26 1
21 27 157
21 28 104
21 29 116
21 30 79
21 31 135
21 32 193
21 33 87
21 34 164
21 35 32
21 36 139
21 37 91
21 38 178
21 39 126
21 40 202
21 41 123
21 42 164
21 43 195
21 44 121
21 45 144
21 46 36
21 47 136
21 48 72
21 49 158
21 50 221
21 51 129
21 52 28
21 53 48
21 54 176
21 55 45
21 56 23
21 57 33
21 58 143
21 59 11
21 60 126
21 61 9
21 62 201
21 63 60
21 64 159
21 65 21
21 66 204
21 67 164
21 68 14
21 69 218
21 70 139
21 71 111
21 72 225
21 73 140
21 74 155
21 75 92
21 76 140
21 77 65
21 78 119
21 79 22
21 80 23
22 23 213
22 24 213
22 25 232
22 26 81
22 27 157
22 28 196
22 29 89
22 30 228
22 31 28
22 32 231
22 33 183
22 34 74
22 35 57
22 36 117
22 37 172
22 38 173
22 39 101
22 40 21
22 41 151
22 42 27
22 43 172
22 44 10
22 45 66
22 46 173
22 47 162
22 48 87
22 49 118
22 50 182
22 51 135
22 52 70
22 53 53
22 54 28
22 55 43
22 56 37
22 57 164
22 58 80
22 59 91
22 60 119
22 61 4
22 62 215
22 63 40
22 64 139
22 65 58
22 66 137
22 67 56
22 68 231
22 69 78
22 70 2
22 71 83
22 72 179
22 73 178
22 74 89
22 75 72
22 76 99
22 77 153
22 78 71
22 79 126
22 80 195
23 24 104
23 25 135
23 26 59
23 27 25
23 28 193
23 29 237
23 30 96
23 31 53
23 32 158
23 33 15
23 34 41
23 35 84
23 36 69
23 37 82
23 38 138
23 39 230
23 40 163
23 41 132
23 42 88
23 43 67
23 44 230
23 45 222
23 46 79
23 47 92
23 48 99
23 49 144
23 50 33
23 51 186
23 52 141
23 53 176
23 54 68
23 55 217
23 56 43
23 57 231
23 58 91
23 59 146
23 60 59
23 61 221
23 62 121
23 63 160
23 64 200
23 65 193
23 66 57
23 67 116
23 68 191
23 69 115
23 70 209
23 71 41
23 72 134
23 73 121
23 74 32
23 75 119
23 76 102
23 77 169
23 78 13
23 79 105
23 80 193
24 25 132
24 26 137
24 27 127
24 28 217
24 29 91
24 30 156
24 31 4
24 32 187
24 33 135
24 34 9
24 35 215
24 36 154
24 37 57
24 38 75
24 39 111
24 40 129
24 41 92
24 42 62
24 43 159
24 44 15
24 45 160
24 46 222
24 47 168
24 48 177
24 49 194
24 50 29
24 51 23
24 52 229
24 53 149
24 54 156
24 55 32
24 56 116
24 57 134
24 58 61
24 59 21
24 60 34
24 61 205
24 62 193
24 63 108
24 64 106
24 65 67
24 66 131
24 67 171
24 68 164
24 69 185
24 70 107
24 71 138
24 72 159
24 73 47
24 74 197
24 75 33
24 76 176
24 77 105
24 78 102
24 79 85
24 80 56
25 26 119
25 27 203
25 28 225
25 29 125
25 30 177
25 31 225
25 32 7
25 33 222
25 34 235
25 35 53
25 36 234
25 37 174
25 38 113
25 39 116
25 40 197
25 41 152
25 42 72
25 43 206
25 44 116
25 45 67
25 46 202
25 47 32
25 48 238
25 49 84
25 50 146
25 51 25
25 52 128
25 53 75
25 54 37
25 55 113
25 56 191
25 57 187
25 58 235
25 59 44
25 60 75
25 61 29
25 62 100
25 63 13
25 64 156
25 65 148
25 66 20
25 67 105
25 68 97
25 69 166
25 70 122
25 71 111
25 72 70
25 73 111
25 74 207
25 75 6
25 76 174
25 77 147
25 78 166
25 79 227
25 80 81
26 27 180
26 28 186
26 29 21
26 30 85
26 31 182
26 32 84
26 33 19
26 34 91
26 35 235
26 36 77
26 37 77
26 38 72
26 39 46
26 40 210
26 41 162
26 42 1
26 43 66
26 44 3
26 45 212
26 46 0
26 47 216
26 48 41
26 49 212
26 50 53
26 51 21
26 52 202
26 53 166
26 54 64
26 55 177
26 56 197
26 57 172
26 58 54
26 59 181
26 60 9
26 61 74
26 62 225
26 63 158
26 64 238
26 65 183
26 66 28
26 67 18
26 68 160
26 69 149
26 70 164
26 71 100
26 72 155
26 73 99
26 74 31
26 75 141
26 76 34
26 77 213
26 78 13
26 79 64
26 80 188
27 28 64
27 29 167
27 30 109
27 31 0
27 32 112
27 33 193
27 34 87
27 35 26
27 36 151
27 37 161
27 38 212
27 39 203
27 40 119
27 41 152
27 42 140
27 43 97
27 44 48
27 45 93
27 46 27
27 47 19
27 48 171
27 49 125
27 50 19
27 51 216
27 52 237
27 53 217
27 54 169
27 55 195
27 56 92
27 57 30
27 58 52
27 59 169
27 60 175
27 61 213
27 62 163
27 63 151
27 64 132
27 65 115
27 66 191
27 67 141
27 68 12
27 69 91
27 70 33
27 71 165
27 72 6
27 73 70
27 74 167
27 75 134
27 76 75
27 77 59
27 78 111
27 79 144
27 80 94
28 29 238
28 30 1
28 31 97
28 32 17
28 33 127
28 34 185
28 35 192
28 36 3
28 37 123
28 38 128
28 39 224
28 40 114
28 41 169
28 42 226
28 43 228
28 44 144
28 45 18
28 46 148
28 47 57
28 48 55
28 49 103
28 50 149
28 51 175
28 52 121
28 53 74
28 54 192
28 55 8
28 56 174
28 57 95
28 58 112
28 59 77
28 60 173
28 61 37
28 62 104
28 63 163
28 64 214
28 65 59
28 66 211
28 67 226
28 68 151
28 69 188
28 70 149
28 71 100
28 72 70
28 73 93
28 74 178
28 75 191
28 76 227
28 77 2
28 78 208
28 79 109
28 80 53
29 30 46
29 31 161
29 32 172
29 33 215
29 34 239
29 35 121
29 36 34
29 37 107
29 38 86
29 39 17
29 40 74
29 41 190
29 42 49
29 43 79
29 44 234
29 45 115
29 46 212
29 47 201
29 48 2
29 49 34
29 50 56
29 51 9
29 52 158
29 53 67
29 54 19
29 55 183
29 56 91
29 57 230
29 58 53
29 59 12
29 60 134
29 61 166
29 62 235
29 63 213
29 64 131
29 65 65
29 66 70
29 67 28
29 68 145
29 69 24
29 70 75
29 71 230
29 72 168
29 73 188
29 74 7
29 75 2
29 76 10
29 77 51
29 78 175
29 79 15
29 80 194
30 31 70
30 32 163
30 33 180
30 34 101
30 35 52
30 36 81
30 37 188
30 38 66
30 39 138
30 40 233
30 41 237
30 42 128
30 43 221
30 44 57
30 45 85
30 46 46
30 47 235
30 48 206
30 49 134
30 50 33
30 51 86
30 52 214
30 53 67
30 54 217
30 55 130
30 56 103
30 57 221
30 58 109
30 59 92
30 60 46
30 61 105
30 62 110
30 63 155
30 64 29
30 65 185
30 66 137
30 67 131
30 68 58
30 69 196
30 70 147
30 71 203
30 72 103
30 73 183
30 74 167
30 75 31
30 76 199
30 77 33
30 78 177
30 79 230
30 80 181
31 32 33
31 33 107
31 34 234
31 35 189
31 36 181
31 37 234
31 38 146
31 39 42
31 40 68
31 41 196
31 42 178
31 43 127
31 44 190
31 45 78
31 46 210
31 47 153
31 48 53
31 49 221
31 50 230
31 51 82
31 52 203
31 53 146
31 54 34
31 55 91
31 56 30
31 57 51
31 58 28
31 59 158
31 60 75
31 61 108
31 62 89
31 63 46
31 64 130
31 65 182
31 66 5
31 67 201
31 68 77
31 69 81
31 70 189
31 71 6
31 72 128
31 73 36
31 74 121
31 75 148
31 76 58
31 77 1
31 78 132
31 79 197
31 80 31
32 33 24
32 34 147
32 35 104
32 36 63
32 37 24
32 38 193
32 39 182
32 40 234
32 41 104
32 42 84
32 43 182
32 44 127
32 45 197
32 46 102
32 47 192
32 48 29
32 49 97
32 50 29
32 51 118
32 52 71
32 53 33
32 54 23
32 55 48
32 56 150
32 57 11
32 58 39
32 59 224
32 60 40
32 61 121
32 62 205
32 63 43
32 64 131
32 65 186
32 66 185
32 67 16
32 68 194
32 69 110
32 70 111
32 71 33
32 72 73
32 73 182
32 74 144
32 75 62
32 76 81
32 77 219
32 78 188
32 79 231
32 80 4
33 34 62
33 35 84
33 36 18
33 37 95
33 38 48
33 39 1
33 40 223
33 41 30
33 42 184
33 43 146
33 44 126
33 45 126
33 46 142
33 47 45
33 48 134
33 49 227
33 50 163
33 51 232
33 52 206
33 53 107
33 54 166
33 55 77
33 56 55
33 57 163
33 58 3
33 59 82
33 60 226
33 61 137
33 62 66
33 63 158
33 64 31
33 65 132
33 66 75
33 67 56
33 68 233
33 69 230
33 70 194
33 71 55
33 72 175
33 73 220
33 74 215
33 75 52
33 76 238
33 77 186
33 78 223
33 79 6
33 80 80
34 35 58
34 36 6
34 37 87
34 38 204
34 39 144
34 40 119
34 41 227
34 42 100
34 43 64
34 44 118
34 45 27
34 46 38
34 47 59
34 48 78
34 49 219
34 50 14
34 51 205
34 52 189
34 53 8
34 54 189
34 55 113
34 56 184
34 57 64
34 58 79
34 59 83
34 60 188
34 61 158
34 62 126
34 63 90
34 64 141
34 65 92
34 66 172
34 67 82
34 68 20
34 69 29
34 70 10
34 71 206
34 72 190
34 73 191
34 74 75
34 75 40
34 76 156
34 77 101
34 78 128
34 79 202
34 80 25
35 36 77
35 37 97
35 38 29
35 39 94
35 40 97
35 41 51
35 42 105
35 43 190
35 44 160
35 45 163
35 46 62
35 47 44
35 48 204
35 49 89
35 50 112
35 51 106
35 52 105
35 53 98
35 54 183
35 55 197
35 56 212
35 57 163
35 58 50
35 59 160
35 60 135
35 61 177
35 62 16
35 63 224
35 64 155
35 65 158
35 66 81
35 67 66
35 68 47
35 69 220
35 70 2
35 71 141
35 72 53
35 73 221
35 74 153
35 75 74
35 76 117
35 77 19
35 78 219
35 79 80
35 80 151
36 37 120
36 38 108
36 39 150
36 40 128
36 41 173
36 42 165
36 43 183
36 44 98
36 45 120
36 46 207
36 47 197
36 48 6
36 49 45
36 50 22
36 51 130
36 52 103
36 53 201
36 54 86
36 55 222
36 56 84
36 57 181
36 58 61
36 59 234
36 60 170
36 61 149
36 62 196
36 63 58
36 64 9
36 65 217
36 66 194
36 67 105
36 68 44
36 69 194
36 70 78
36 71 26
36 72 215
36 73 165
36 74 193
36 75 68
36 76 181
36 77 141
36 78 120
36 79 235
36 80 118
37 38 113
37 39 171
37 40 168
37 41 1
37 42 228
37 43 172
37 44 227
37 45 6
37 46 125
37 47 7
37 48 168
37 49 106
37 50 163
37 51 160
37 52 32
37 53 181
37 54 96
37 55 34
37 56 57
37 57 116
37 58 230
37 59 162
37 60 215
37 61 75
37 62 76
37 63 85
37 64 18
37 65 67
37 66 51
37 67 22
37 68 111
37 69 223
37 70 222
37 71 23
37 72 61
37 73 216
37 74 49
37 75 103
37 76 209
37 77 21
37 78 87
37 79 15
37 80 3
38 39 230
38 40 234
38 41 20
38 42 90
38 43 125
38 44 129
38 45 69
38 46 113
38 47 50
38 48 5
38 49 66
38 50 124
38 51 60
38 52 37
38 53 155
38 54 126
38 55 144
38 56 203
38 57 179
38 58 38
38 59 85
38 60 2
38 61 118
38 62 66
38 63 27
38 64 124
38 65 44
38 66 3
38 67 122
38 68 58
38 69 161
38 70 86
38 71 35
38 72 79
38 73 35
38 74 154
38 75 122
38 76 165
38 77 214
38 78 228
38 79 186
38 80 2
39 40 179
39 41 211
39 42 165
39 43 167
39 44 85
39 45 84
39 46 184
39 47 137
39 48 236
39 49 184
39 50 36
39 51 55
39 52 21
39 53 112
39 54 60
39 55 130
39 56 93
39 57 90
39 58 175
39 59 19
39 60 2
39 61 221
39 62 141
39 63 86
39 64 82
39 65 69
39 66 163
39 67 119
39 68 84
39 69 53
39 70 196
39 71 68
39 72 235
39 73 62
39 74 217
39 75 76
39 76 47
39 77 16
39 78 197
39 79 143
39 80 60
40 41 161
40 42 40
40 43 214
40 44 5
40 45 26
40 46 210
40 47 226
40 48 1
40 49 98
40 50 120
40 51 110
40 52 178
40 53 154
40 54 109
40 55 155
40 56 169
40 57 0
40 58 117
40 59 176
40 60 16
40 61 135
40 62 205
40 63 200
40 64 178
40 65 226
40 66 194
40 67 11
40 68 116
40 69 105
40 70 50
40 71 127
40 72 114
40 73 74
40 74 175
40 75 38
40 76 21
40 77 209
40 78 187
40 79 228
40 80 79
41 42 152
41 43 27
41 44 172
41 45 122
41 46 15
41 47 232
41 48 142
41 49 167
41 50 132
41 51 206
41 52 234
41 53 69
41 54 204
41 55 65
41 56 132
41 57 47
41 58 235
41 59 157
41 60 195
41 61 16
41 62 107
41 63 52
41 64 147
41 65 113
41 66 217
41 67 192
41 68 149
41 69 179
41 70 166
41 71 57
41 72 41
41 73 161
41 74 54
41 75 81
41 76 152
41 77 214
41 78 13
41 79 233
41 80 208
42 43 235
42 44 209
42 45 15
42 46 206
42 47 188
42 48 146
42 49 12
42 50 40
42 51 43
42 52 35
42 53 58
42 54 148
42 55 196
42 56 80
42 57 35
42 58 105
42 59 76
42 60 200
42 61 105
42 62 129
42 63 94
42 64 105
42 65 36
42 66 10
42 67 227
42 68 105
42 69 236
42 70 169
42 71 122
42 72 25
42 73 223
42 74 133
42 75 34
42 76 197
42 77 163
42 78 96
42 79 21
42 80 117
43 44 237
43 45 35
43 46 55
43 47 46
43 48 114
43 49 40
43 50 142
43 51 177
43 52 174
43 53 179
43 54 23
43 55 156
43 56 158
43 57 139
43 58 203
43 59 197
43 60 34
43 61 59
43 62 162
43 63 181
43 64 199
43 65 166
43 66 218
43 67 43
43 68 69
43 69 239
43 70 22
43 71 174
43 72 57
43 73 158
43 74 120
43 75 90
43 76 42
43 77 131
43 78 49
43 79 234
43 80 169
44 45 143
44 46 108
44 47 90
44 48 145
44 49 90
44 50 231
44 51 219
44 52 92
44 53 151
44 54 25
44 55 238
44 56 30
44 57 39
44 58 153
44 59 207
44 60 30
44 61 162
44 62 40
44 63 143
44 64 45
44 65 209
44 66 70
44 67 168
44 68 96
44 69 176
44 70 217
44 71 75
44 72 50
44 73 28
44 74 5
44 75 172
44 76 102
44 77 44
44 78 89
44 79 161
44 80 139
45 46 19
45 47 192
45 48 83
45 49 190
45 50 108
45 51 210
45 52 51
45 53 120
45 54 154
45 55 51
45 56 165
45 57 140
45 58 64
45 59 21
45 60 161
45 61 225
45 62 50
45 63 117
45 64 156
45 65 15
45 66 109
45 67 12
45 68 229
45 69 120
45 70 217
45 71 127
45 72 177
45 73 41
45 74 152
45 75 33
45 76 155
45 77 202
45 78 60
45 79 188
45 80 77
46 47 10
46 48 198
46 49 12
46 50 71
46 51 210
46 52 233
46 53 172
46 54 163
46 55 45
46 56 104
46 57 0
46 58 156
46 59 5
46 60 210
46 61 213
46 62 122
46 63 196
46 64 173
46 65 148
46 66 160
46 67 158
46 68 199
46 69 230
46 70 11
46 71 209
46 72 35
46 73 92
46 74 64
46 75 223
46 76 204
46 77 108
46 78 75
46 79 226
46 80 204
47 48 126
47 49 75
47 50 116
47 51 136
47 52 141
47 53 10
47 54 86
47 55 59
47 56 148
47 57 4
47 58 18
47 59 55
47 60 208
47 61 58
47 62 19
47 63 169
47 64 5
47 65 201
47 66 191
47 67 175
47 68 29
47 69 189
47 70 143
47 71 212
47 72 154
47 73 76
47 74 41
47 75 211
47 76 87
47 77 17
47 78 130
47 79 116
47 80 236
48 49 81
48 50 47
48 51 86
48 52 169
48 53 198
48 54 86
48 55 7
48 56 219
48 57 107
48 58 128
48 59 122
48 60 117
48 61 12
48 62 63
48 63 8
48 64 71
48 65 26
48 66 181
48 67 28
48 68 69
48 69 8
48 70 82
48 71 197
48 72 52
48 73 2
48 74 117
48 75 221
48 76 85
48 77 12
48 78 147
48 79 83
48 80 150
49 50 191
49 51 223
49 52 51
49 53 63
49 54 102
49 55 146
49 56 96
49 57 157
49 58 171
49 59 21
49 60 228
49 61 231
49 62 206
49 63 158
49 64 220
49 65 111
49 66 28
49 67 146
49 68 58
49 69 188
49 70 232
49 71 47
49 72 68
49 73 86
49 74 33
49 75 32
49 76 50
49 77 77
49 78 145
49 79 81
49 80 86
50 51 210
50 52 47
50 53 118
50 54 135
50 55 103
50 56 136
50 57 19
50 58 217
50 59 70
50 60 174
50 61 56
50 62 153
50 63 50
50 64 192
50 65 74
50 66 111
50 67 75
50 68 148
50 69 206
50 70 6
50 71 203
50 72 135
50 73 17
50 74 77
50 75 99
50 76 232
50 77 237
50 78 214
50 79 118
50 80 239
51 52 29
51 53 116
51 54 145
51 55 100
51 56 226
51 57 126
51 58 174
51 59 25
51 60 28
51 61 8
51 62 119
51 63 237
51 64 156
51 65 79
51 66 38
51 67 55
51 68 104
51 69 162
51 70 18
51 71 194
51 72 197
51 73 61
51 74 156
51 75 133
51 76 118
51 77 173
51 78 79
51 79 215
51 80 70
52 53 25
52 54 122
52 55 99
52 56 143
52 57 127
52 58 34
52 59 19
52 60 22
52 61 19
52 62 168
52 63 61
52 64 176
52 65 205
52 66 53
52 67 118
52 68 215
52 69 114
52 70 4
52 71 48
52 72 238
52 73 227
52 74 204
52 75 145
52 76 165
52 77 228
52 78 217
52 79 142
52 80 66
53 54 234
53 55 122
53 56 24
53 57 27
53 58 189
53 59 139
53 60 206
53 61 189
53 62 48
53 63 115
53 64 216
53 65 104
53 66 167
53 67 58
53 68 154
53 69 111
53 70 117
53 71 234
53 72 80
53 73 114
53 74 192
53 75 167
53 76 0
53 77 13
53 78 229
53 79 28
53 80 113
54 55 30
54 56 63
54 57 34
54 58 203
54 59 36
54 60 9
54 61 85
54 62 66
54 63 103
54 64 152
54 65 123
54 66 183
54 67 203
54 68 206
54 69 164
54 70 215
54 71 138
54 72 61
54 73 174
54 74 31
54 75 164
54 76 174
54 77 125
54 78 78
54 79 176
54 80 161
55 56 11
55 57 31
55 58 61
55 59 2
55 60 141
55 61 217
55 62 7
55 63 197
55 64 25
55 65 151
55 66 143
55 67 234
55 68 204
55 69 182
55 70 27
55 71 213
55 72 203
55 73 202
55 74 89
55 75 13
55 76 121
55 77 166
55 78 120
55 79 165
55 80 147
56 57 59
56 58 16
56 59 72
56 60 212
56 61 166
56 62 82
56 63 178
56 64 34
56 65 219
56 66 212
56 67 19
56 68 62
56 69 149
56 70 64
56 71 102
56 72 235
56 73 86
56 74 224
56 75 197
56 76 11
56 77 7
56 78 142
56 79 135
56 80 166
57 58 117
57 59 185
57 60 36
57 61 33
57 62 181
57 63 89
57 64 100
57 65 56
57 66 104
57 67 36
57 68 105
57 69 189
57 70 214
57 71 183
57 72 133
57 73 39
57 74 224
57 75 170
57 76 231
57 77 90
57 78 28
57 79 109
57 80 203
58 59 200
58 60 166
58 61 228
58 62 123
58 63 78
58 64 153
58 65 57
58 66 228
58 67 165
58 68 213
58 69 173
58 70 57
58 71 36
58 72 231
58 73 120
58 74 95
58 75 152
58 76 167
58 77 53
58 78 211
58 79 212
58 80 52
59 60 71
59 61 156
59 62 59
59 63 49
59 64 96
59 65 114
59 66 237
59 67 99
59 68 117
59 69 176
59 70 75
59 71 192
59 72 181
59 73 31
59 74 151
59 75 146
59 76 54
59 77 80
59 78 211
59 79 77
59 80 206
60 61 217
60 62 27
60 63 122
60 64 212
60 65 6
60 66 45
60 67 213
60 68 108
60 69 135
60 70 94
60 71 155
60 72 116
60 73 90
60 74 127
60 75 35
60 76 97
60 77 145
60 78 33
60 79 238
60 80 202
61 62 33
61 63 175
61 64 80
61 65 28
61 66 27
61 67 86
61 68 183
61 69 138
61 70 198
61 71 44
61 72 87
61 73 156
61 74 10
61 75 163
61 76 174
61 77 34
61 78 196
61 79 235
61 80 185
62 63 26
62 64 203
62 65 104
62 66 140
62 67 153
62 68 229
62 69 17
62 70 170
62 71 80
62 72 111
62 73 238
62 74 9
62 75 44
62 76 14
62 77 138
62 78 60
62 79 88
62 80 174
63 64 238
63 65 122
63 66 36
63 67 168
63 68 222
63 69 172
63 70 77
63 71 32
63 72 38
63 73 222
63 74 116
63 75 198
63 76 176
63 77 88
63 78 125
63 79 75
63 80 174
64 65 203
64 66 218
64 67 149
64 68 3
64 69 88
64 70 15
64 71 73
64 72 157
64 73 154
64 74 151
64 75 167
64 76 46
64 77 184
64 78 174
64 79 201
64 80 92
65 66 34
65 67 229
65 68 93
65 69 206
65 70 180
65 71 89
65 72 106
65 73 200
65 74 217
65 75 21
65 76 157
65 77 228
65 78 24
65 79 26
65 80 165
66 67 129
66 68 32
66 69 39
66 70 144
66 71 100
66 72 76
66 73 176
66 74 53
66 75 52
66 76 183
66 77 161
66 78 129
66 79 143
66 80 3
67 68 170
67 69 141
67 70 174
67 71 205
67 72 144
67 73 13
67 74 67
67 75 65
67 76 86
67 77 113
67 78 188
67 79 233
67 80 213
68 69 133
68 70 86
68 71 68
68 72 173
68 73 121
68 74 178
68 75 236
68 76 130
68 77 93
68 78 207
68 79 216
68 80 225
69 70 123
69 71 129
69 72 222
69 73 29
69 74 226
69 75 37
69 76 122
69 77 173
69 78 193
69 79 197
69 80 215
70 71 35
70 72 235
70 73 96
70 74 230
70 75 49
70 76 54
70 77 209
70 78 125
70 79 215
70 80 1
71 72 135
71 73 223
71 74 117
71 75 70
71 76 218
71 77 232
71 78 193
71 79 142
71 80 52
72 73 93
72 74 180
72 75 138
72 76 226
72 77 167
72 78 67
72 79 184
72 80 27
73 74 144
73 75 88
73 76 87
73 77 82
73 78 77
73 79 28
73 80 89
74 75 63
74 76 125
74 77 111
74 78 6
74 79 123
74 80 187
75 76 87
75 77 6
75 78 178
75 79 157
75 80 203
76 77 100
76 78 183
76 79 67
76 80 156
77 78 191
77 79 58
77 80 59
78 79 206
78 80 110
79 80 78
